RT is False
Default write of storage_offers_DA.csv just to have a file (but constraint should be inactive)
Reading model...
...model read.
creating competitive generators file...
...competitive generators recorded.
Loading data...
.. day-ahead data with real-time VRE data read.
Compiling instance...
...instance created.
Creating Offer Mitigation (model will solve as dispatch if TRUE)...
NOTE: storage offers will not be mitigated
...storage offer mitigation file created
Converting model to MPEC...
...converted
NOTE: initial MIP solve with only storage competitive to get feasible solution
Solving...

Welcome to IBM(R) ILOG(R) CPLEX(R) Interactive Optimizer 12.9.0.0
  with Simplex, Mixed Integer & Barrier Optimizers
5725-A06 5725-A29 5724-Y48 5724-Y49 5724-Y54 5724-Y55 5655-Y21
Copyright IBM Corp. 1988, 2019.  All Rights Reserved.

Type 'help' for a list of available commands.
Type 'help' followed by a command name for more
information on commands.

CPLEX> Logfile 'cplex.log' closed.
Logfile 'C:\Users\llavin\Desktop\test919\logs\tmp960_m1v_.cplex.log' open.
CPLEX> New value for parallel optimization mode: -1
CPLEX> New value for mixed integer optimality gap tolerance: 0.01
CPLEX> New value for integrality tolerance: 1e-09
CPLEX> New value for feasibility tolerance: 0.01
CPLEX> New value for deterministic time limit in ticks: 75000
CPLEX> Problem 'C:\Users\llavin\Desktop\test919\logs\tmpw89bm4fs.pyomo.lp' read.
Read time = 0.25 sec. (14.73 ticks)
CPLEX> Problem name         : C:\Users\llavin\Desktop\test919\logs\tmpw89bm4fs.pyomo.lp
Objective sense      : Maximize
Variables            :   53805  [Nneg: 1,  Box: 22000,  Free: 4464,
                                 Binary: 27340]
Objective nonzeros   :    9027
Linear constraints   :  123205  [Less: 41346,  Greater: 59096,  Equal: 22763]
  Nonzeros           :  291751
  RHS nonzeros       :   67489

Variables            : Min LB: -5000.000        Max UB: 1000000.       
Objective nonzeros   : Min   : 0.01666667       Max   : 2500.000       
Linear constraints   :
  Nonzeros           : Min   : 0.01666667       Max   : 1000000.       
  RHS nonzeros       : Min   : 0.01666667       Max   : 1000000.       
CPLEX> CPXPARAM_Parallel                                -1
CPXPARAM_Simplex_Tolerances_Feasibility          0.01
CPXPARAM_DetTimeLimit                            75000
CPXPARAM_MIP_Tolerances_MIPGap                   0.01
CPXPARAM_MIP_Tolerances_Integrality              1.0000000000000001e-09
Tried aggregator 3 times.
MIP Presolve eliminated 88645 rows and 18968 columns.
MIP Presolve added 3376 rows and 0 columns.
MIP Presolve modified 24783 coefficients.
Aggregator did 12973 substitutions.
Reduced MIP has 24963 rows, 21307 columns, and 71203 nonzeros.
Reduced MIP has 8418 binaries, 0 generals, 0 SOSs, and 0 indicators.
Presolve time = 0.30 sec. (176.04 ticks)
Probing fixed 387 vars, tightened 2886 bounds.
Probing time = 1.20 sec. (887.59 ticks)
Tried aggregator 2 times.
MIP Presolve eliminated 879 rows and 777 columns.
MIP Presolve modified 2211 coefficients.
Aggregator did 35 substitutions.
Reduced MIP has 24049 rows, 20495 columns, and 68558 nonzeros.
Reduced MIP has 8030 binaries, 0 generals, 0 SOSs, and 0 indicators.
Presolve time = 0.11 sec. (68.56 ticks)
Probing time = 0.05 sec. (16.26 ticks)
Clique table members: 6364.
MIP emphasis: balance optimality and feasibility.
MIP search method: dynamic search.
Parallel mode: opportunistic, using up to 32 threads.
Root relaxation solution time = 0.42 sec. (324.09 ticks)

        Nodes                                         Cuts/
   Node  Left     Objective  IInf  Best Integer    Best Bound    ItCnt     Gap

      0     0     3916.5473  1700                   3916.5473     7740         
      0     0     3916.5473     9                    Fract: 3     7743         
      0     0     3916.5473     8                Flowcuts: 10     7746         
      0    10    infeasible                           Cuts: 4     7926         
Elapsed time = 8.86 sec. (5097.36 ticks, tree = 0.02 MB, solutions = 0)
*    65    38      integral     0    -1366.2936     3859.0584     8316  382.45%
*    95    50      integral     0     3846.1820     3859.0584     8433    0.33%

Implied bound cuts applied:  3
Flow cuts applied:  10
Gomory fractional cuts applied:  4

Root node processing (before b&c):
  Real time             =    7.84 sec. (5092.20 ticks)
Parallel b&c, 32 threads:
  Real time             =    2.34 sec. (198.94 ticks)
  Sync time (average)   =    0.97 sec.
  Wait time (average)   =    0.00 sec.
                          ------------
Total (root+branch&cut) =   10.19 sec. (5291.14 ticks)

Solution pool: 7 solutions saved.

MIP - Integer optimal, tolerance (0.01/1e-06):  Objective =  3.8461819592e+03
Current MIP best bound =  3.8590584368e+03 (gap = 12.8765, 0.33%)
Solution time =   10.25 sec.  Iterations = 10080  Nodes = 255 (15)
Deterministic time = 5291.30 ticks  (516.22 ticks/sec)

CPLEX> Incumbent solution written to file 'C:\Users\llavin\Desktop\test919\logs\tmp8owvxf4o.cplex.sol'.
CPLEX> NOTE: no warmstart specified for MIP iteration, default behavior is true
NOTE: resolving with all competitive generators using storage-only solution to warmstart
Solving...

Welcome to IBM(R) ILOG(R) CPLEX(R) Interactive Optimizer 12.9.0.0
  with Simplex, Mixed Integer & Barrier Optimizers
5725-A06 5725-A29 5724-Y48 5724-Y49 5724-Y54 5724-Y55 5655-Y21
Copyright IBM Corp. 1988, 2019.  All Rights Reserved.

Type 'help' for a list of available commands.
Type 'help' followed by a command name for more
information on commands.

CPLEX> Logfile 'cplex.log' closed.
Logfile 'C:\Users\llavin\Desktop\test919\logs\tmp5a_j0hmh.cplex.log' open.
CPLEX> New value for parallel optimization mode: -1
CPLEX> New value for mixed integer optimality gap tolerance: 0.01
CPLEX> New value for integrality tolerance: 1e-09
CPLEX> New value for feasibility tolerance: 0.01
CPLEX> New value for deterministic time limit in ticks: 75000
CPLEX> Problem 'C:\Users\llavin\Desktop\test919\logs\tmpopvnjxny.pyomo.lp' read.
Read time = 0.23 sec. (14.75 ticks)
CPLEX> MIP start file 'C:\Users\llavin\Desktop\test919\logs\tmpsv8a8f1l.cplex.mst' read.
CPLEX> Problem name         : C:\Users\llavin\Desktop\test919\logs\tmpopvnjxny.pyomo.lp
Objective sense      : Maximize
Variables            :   54525  [Nneg: 1,  Box: 22720,  Free: 4464,
                                 Binary: 27340]
Objective nonzeros   :    9723
Linear constraints   :  123205  [Less: 41346,  Greater: 59096,  Equal: 22763]
  Nonzeros           :  291751
  RHS nonzeros       :   67489

Variables            : Min LB: -5000.000        Max UB: 1000000.       
Objective nonzeros   : Min   : 0.01666667       Max   : 2500.000       
Linear constraints   :
  Nonzeros           : Min   : 0.01666667       Max   : 1000000.       
  RHS nonzeros       : Min   : 0.01666667       Max   : 1000000.       
CPLEX> CPXPARAM_Parallel                                -1
CPXPARAM_Simplex_Tolerances_Feasibility          0.01
CPXPARAM_DetTimeLimit                            75000
CPXPARAM_MIP_Tolerances_MIPGap                   0.01
CPXPARAM_MIP_Tolerances_Integrality              1.0000000000000001e-09
Warning:  No solution found from 1 MIP starts.
Retaining values of one MIP start for possible repair.
Tried aggregator 3 times.
MIP Presolve eliminated 88645 rows and 19688 columns.
MIP Presolve added 3376 rows and 0 columns.
MIP Presolve modified 24783 coefficients.
Aggregator did 12973 substitutions.
Reduced MIP has 24963 rows, 21307 columns, and 71203 nonzeros.
Reduced MIP has 8418 binaries, 0 generals, 0 SOSs, and 0 indicators.
Presolve time = 0.30 sec. (176.41 ticks)
Probing fixed 387 vars, tightened 2886 bounds.
Probing time = 1.19 sec. (887.59 ticks)
Tried aggregator 2 times.
MIP Presolve eliminated 879 rows and 777 columns.
MIP Presolve modified 2211 coefficients.
Aggregator did 35 substitutions.
Reduced MIP has 24049 rows, 20495 columns, and 68558 nonzeros.
Reduced MIP has 8030 binaries, 0 generals, 0 SOSs, and 0 indicators.
Presolve time = 0.11 sec. (68.57 ticks)
Probing time = 0.05 sec. (16.26 ticks)
Clique table members: 6364.
MIP emphasis: balance optimality and feasibility.
MIP search method: dynamic search.
Parallel mode: opportunistic, using up to 32 threads.
Root relaxation solution time = 0.48 sec. (355.12 ticks)

        Nodes                                         Cuts/
   Node  Left     Objective  IInf  Best Integer    Best Bound    ItCnt     Gap

      0     0   191906.2551  1738                 191906.2551     8090         
      0     0   189925.5990   508                  Cuts: 1080     8608         
      0     0   189698.3138   412                   Cuts: 406     8747         
      0     0   189621.9857   375                   Cuts: 262     8838         
      0     0   189585.2423   356                   Cuts: 111     8901         
      0     0   189565.6488   324                   Cuts: 120     8940         
      0     0   189563.1658   314                    Cuts: 42     8955         
      0     0   189559.8662   305                    Cuts: 51     8972         
      0     0   189555.2202   296                    Cuts: 28     8984         
      0     0   187512.6402   291                    Cuts: 24     9019         
      0     0   187500.2345   293                    Cuts: 26     9028         
      0     0   187498.8120   294                    Cuts: 25     9031         
Repair heuristic found nothing.
      0    29    infeasible                          Cuts: 40    10489         
Elapsed time = 13.75 sec. (8063.30 ticks, tree = 0.02 MB, solutions = 0)
    410    64    infeasible                       160763.8113    12497         
    872   537    53411.1764   230                 160453.3338    27412         
   1369   672    infeasible                       160453.3338    29459         
   2015   868    25011.6627   218                 160453.3338    32879         
   2657  1280    -3352.4296   178                 160453.3338    41111         
   3238  1639    -7266.0366   115                 160279.3122    47088         
   3835  1994   -32084.6778   115                 160279.3122    52237         
   4483  2833   -32372.0657    91                 160279.3122    61264         
   5206  4019   -66844.5751    74                 160279.3122    74288         
*  6746+ 1996                        18026.2945   157671.2482           774.67%
Elapsed time = 29.75 sec. (10704.85 ticks, tree = 10.72 MB, solutions = 3)
*  8222  4331      integral     0    22815.3412   157325.9939    78267  589.56%
   9085  2585        cutoff          22815.3412    81549.1645   112049  257.43%
  10804   582    32424.6564    81    22815.3412    69418.7803   118813  204.26%
  13500  1547    48475.6328    98    22815.3412    69418.7803   129487  204.26%
  16689  3972    45335.1116    70    22815.3412    65215.4587   148417  185.84%
  19448  3513    35479.4813    50    35369.6170    65112.9606   158102   84.09%
  22307  3537    49799.8624   104    35369.6170    65112.9606   159247   84.09%
  25174  4860    38168.7451   108    35369.6170    65112.9606   180059   84.09%
  28080  7839    46409.8112    67    35369.6170    52662.5804   207125   48.89%
  30729  3746    45152.3215    72    35369.6170    52662.5804   166921   48.89%
Elapsed time = 86.33 sec. (24254.45 ticks, tree = 25.17 MB, solutions = 8)
  33143  4051    49730.8189    89    45013.1775    52398.9912   166134   16.41%
  35920  5996    46749.4857    84    45013.1775    52398.9912   188220   16.41%
  38679  5614    35485.1540   100    45013.1775    52213.6335   185622   16.00%
  41522  8226    43738.1265    71    45013.1775    52093.0873   209359   15.73%
  44546  8444    45211.4994    69    45013.1775    52057.9450   249329   15.65%
  47480  7835    44598.3793    66    45013.1775    52057.9450   207435   15.65%
  50377 11024    48440.2140    85    45013.1775    51864.2839   283995   15.22%
  53513 13889    49344.7408    81    45013.1775    51824.1694   311114   15.13%
  56332 13879    49596.1473    75    45013.1775    51581.2452   311195   14.59%
  58914 11353    49609.9702    66    45013.1775    51570.2982   284866   14.57%
Elapsed time = 141.02 sec. (33793.30 ticks, tree = 89.01 MB, solutions = 8)
  61151 13964    46729.9625    70    45013.1775    50754.6791   312173   12.76%
  63606 12592    45904.0927    87    45013.1775    50754.6791   302809   12.76%
  65610 19899    45331.0198    32    45013.1775    50070.1322   354056   11.23%
  67383 14417    47658.6405    71    45346.6635    50070.1322   313717   10.42%
  69169 24237    47074.4034    77    45346.6635    50070.1322   404944   10.42%
  71144 25436    45862.6901    73    45346.6635    50070.1322   419281   10.42%
  73418 22031    49687.2924    95    45346.6635    50069.9592   369459   10.42%
  76174 25708        cutoff          45346.6635    49880.1990   498444   10.00%
  78733 23223    45430.0272    64    45346.6635    49859.2304   449028    9.95%
  81490 27100    48998.5363    93    45346.6635    49859.2304   540826    9.95%
Elapsed time = 188.42 sec. (43332.99 ticks, tree = 244.22 MB, solutions = 10)
  83995 24007    45993.3777    76    45346.6635    49859.2304   465537    9.95%
  86475 27276    45535.9906    55    45346.6635    49285.2211   607345    8.69%
  89000 26972    47099.7432    86    45346.6635    48958.6525   563626    7.97%
  91669 22575    45419.9690    64    45346.6635    48861.0452   435537    7.75%
  94505 26963    45726.3179    70    45346.6635    48324.7080   594413    6.57%
  97116 27608    47607.2253    74    45346.6635    47643.7319   614273    5.07%
  99799 29474        cutoff          45346.6635    47431.9236   669349    4.60%
 102417 29628    46747.6085    84    45346.6635    46992.9160   687062    3.63%
 104936 29570    infeasible          45346.6635    46756.9606   682743    3.11%
 107421 19451    infeasible          45346.6635    46445.1199   902730    2.42%
Elapsed time = 242.08 sec. (52871.67 ticks, tree = 183.99 MB, solutions = 10)
 110033 21446        cutoff          45346.6635    46153.8352   867485    1.78%
 112773 26382        cutoff          45346.6635    45862.5389   768020    1.14%
 115512 20186        cutoff          45346.6635    45844.2572   890270    1.10%
 117917 17236        cutoff          45346.6635    45844.2572   932436    1.10%
 119894 18188        cutoff          45346.6635    45844.2572   920107    1.10%
 121129 13293    infeasible          45346.6635    45844.2572   976959    1.10%
 121760 26345        cutoff          45346.6635    45844.2572   769775    1.10%
 122002 13539        cutoff          45346.6635    45844.2572   974327    1.10%
 122138 21629        cutoff          45346.6635    45821.1373   863762    1.05%
 122244 18680        cutoff          45346.6635    45821.1373   912988    1.05%
Elapsed time = 252.03 sec. (62427.76 ticks, tree = 176.44 MB, solutions = 10)
 122340 15894        cutoff          45346.6635    45821.1373   950026    1.05%
 122432 13199    infeasible          45346.6635    45821.1373   977869    1.05%

GUB cover cuts applied:  4
Clique cuts applied:  3
Cover cuts applied:  58
Implied bound cuts applied:  45
Flow cuts applied:  474
Mixed integer rounding cuts applied:  26
Gomory fractional cuts applied:  86

Root node processing (before b&c):
  Real time             =   12.22 sec. (8056.12 ticks)
Parallel b&c, 32 threads:
  Real time             =  240.55 sec. (56735.30 ticks)
  Sync time (average)   =    3.67 sec.
  Wait time (average)   =    0.25 sec.
                          ------------
Total (root+branch&cut) =  252.77 sec. (64791.42 ticks)

Solution pool: 10 solutions saved.

MIP - Integer optimal, tolerance (0.01/1e-06):  Objective =  4.5346663451e+04
Current MIP best bound =  4.5800122135e+04 (gap = 453.459, 1.00%)
Solution time =  252.80 sec.  Iterations = 997302  Nodes = 122480 (11264)
Deterministic time = 64791.57 ticks  (256.30 ticks/sec)

CPLEX> Incumbent solution written to file 'C:\Users\llavin\Desktop\test919\logs\tmpp42f7ag8.cplex.sol'.
CPLEX> Exporting results... 
